============================[ Problem Statistics ]=============================|                                                                             ||  Number of variables:          4242                                         ||  Number of clauses:           10320                                         ||  Parse time:                   0.71 s                                       ||                                                                             |============================[ Search Statistics ]==============================| Conflicts |          ORIGINAL         |          LEARNT          | Progress ||           |    Vars  Clauses Literals |    Limit  Clauses Lit/Cl |          |===============================================================================|       100 |    1591     6525  1128676 |     2392      100     53 | 62.501 % ||       250 |    1591     6525  1128676 |     2631      250     75 | 62.495 % |===============================================================================restarts              : 3conflicts             : 384            (359 /sec)decisions             : 648            (0.00 % random) (605 /sec)propagations          : 12023          (11226 /sec)conflict literals     : 31669          (94.57 % deleted)CPU time              : 1.071 sSATISFIABLE